50 4
78 35 94 49 18 89 10 28 25 75 76 33 32 46 15 37 51 54 29 63 42 94 11 23 18 40 75 46 53 85 70 100 69 44 39 34 54 78 33 48 26 47 67 51 45 96 17 44 87 12
74 35 23 42 79 19 93 91 31 59 93 22 86 45 52 85 14 95 20 100 64 71 37 37 52 80 54 51 48 33 59 27 55 62 16 73 43 99 16 96 71 28 16 77 21 45 67 30 97 52
89 94 21 39 21 61 14 23 96 36 92 61 74 43 89 68 44 95 92 74 34 53 72 30 12 47 40 26 87 10 43 87 29 33 49 73 57 94 31 81 23 70 96 51 29 30 45 56 29 21
19 64 66 30 74 72 24 69 93 62 34 10 94 44 23 24 69 89 69 16 83 76 62 51 10 34 51 69 44 39 91 46 57 93 46 50 48 61 66 99 90 94 40 15 36 16 49 82 85 50
